SCIP version 0.82 [precision: 8 byte] [memory: block] [mode: optimized] [LP solver: SOPLEX 1.3.0]
Copyright (c) 2002-2006 Konrad-Zuse-Zentrum fuer Informationstechnik Berlin (ZIB)

reading parameter file <scip.set>

read problem </ufs/psxjm3/instances/random_1.ctt.et.zpl>
============

****************************************************
* Zuse Institute Mathematical Programming Language *
* Release 2.04  Copyright (C)2005 by Thorsten Koch *
****************************************************

original problem has 5916 variables (5880 bin, 36 int, 0 impl, 0 cont) and 4331 constraints

solve problem
=============

LP Solver <SOPLEX 1.3.0>: dual feasibility tolerance cannot be set -- tolerance of SCIP and LP solver may differ
LP Solver <SOPLEX 1.3.0>: barrier convergence tolerance cannot be set -- tolerance of SCIP and LP solver may differ
LP Solver <SOPLEX 1.3.0>: fastmip setting not available -- SCIP parameter has no effect
LP Solver <SOPLEX 1.3.0>: scaling not available -- SCIP parameter has no effect
LP Solver <SOPLEX 1.3.0>: presolving not available -- SCIP parameter has no effect
transformed problem has 5916 variables (5880 bin, 36 int, 0 impl, 0 cont) and 4331 constraints
   4331 constraints of type <linear>

presolving:
(round 1) 654 del vars, 154 del conss, 654 chg bounds, 0 chg sides, 0 chg coeffs, 0 upgd conss, 0 impls, 2218 clqs
(round 2) 654 del vars, 278 del conss, 654 chg bounds, 0 chg sides, 0 chg coeffs, 0 upgd conss, 0 impls, 2218 clqs
(round 3) 654 del vars, 1237 del conss, 654 chg bounds, 961 chg sides, 0 chg coeffs, 0 upgd conss, 0 impls, 2218 clqs
(round 4) 654 del vars, 1237 del conss, 654 chg bounds, 961 chg sides, 0 chg coeffs, 2914 upgd conss, 0 impls, 2218 clqs
(round 5) 654 del vars, 1312 del conss, 654 chg bounds, 961 chg sides, 6 chg coeffs, 2914 upgd conss, 0 impls, 2218 clqs
   (2.6s) probing: 100/5226 (1.9%) - 0 fixings, 0 aggregations, 0 implications, 0 bound changes
presolving (6 rounds):
 654 deleted vars, 1312 deleted constraints, 654 tightened bounds, 0 added holes, 961 changed sides, 6 changed coefficients
 0 implications, 2218 cliques
presolved problem has 5262 variables (5226 bin, 36 int, 0 impl, 0 cont) and 3019 constraints
   1250 constraints of type <knapsack>
   1425 constraints of type <setppc>
    180 constraints of type <linear>
    164 constraints of type <logicor>
objective value is always integral
Presolving Time: 2.54

 time | node  | left  |LP iter| mem |mdpt |frac |vars |cons |ccons|cols |rows |cuts |confs|strbr|  dualbound   | primalbound  |  gap   
  4.1s|     1 |     0 |  1331 |  42M|   0 | 296 |5262 |3019 |3019 |5262 |3019 |   0 |   0 |   0 | 0.000000e+00 |      --      |    Inf 
  4.9s|     1 |     0 |  1607 |  42M|   0 | 302 |5262 |3019 |3019 |5262 |3025 |   6 |   0 |   0 | 0.000000e+00 |      --      |    Inf 
  6.5s|     1 |     0 |  2227 |  42M|   0 | 266 |5262 |3019 |3019 |5262 |3031 |  12 |   0 |   0 | 0.000000e+00 |      --      |    Inf 
  7.9s|     1 |     0 |  2784 |  42M|   0 | 288 |5262 |3019 |3019 |5262 |3037 |  18 |   0 |   0 | 0.000000e+00 |      --      |    Inf 
  9.2s|     1 |     0 |  3243 |  42M|   0 | 310 |5262 |3019 |3019 |5262 |3043 |  24 |   0 |   0 | 0.000000e+00 |      --      |    Inf 
 10.5s|     1 |     0 |  3673 |  42M|   0 | 288 |5262 |3019 |3019 |5262 |3049 |  30 |   0 |   0 | 0.000000e+00 |      --      |    Inf 
 11.8s|     1 |     0 |  4155 |  42M|   0 | 330 |5262 |3019 |3019 |5262 |3055 |  36 |   0 |   0 | 0.000000e+00 |      --      |    Inf 
 13.4s|     1 |     0 |  4686 |  42M|   0 | 337 |5262 |3019 |3019 |5262 |3061 |  42 |   0 |   0 | 0.000000e+00 |      --      |    Inf 
  122s|     1 |     2 | 15223 |  42M|   0 | 337 |5262 |3019 |3019 |5262 |3061 |  42 |   0 |  38 | 0.000000e+00 |      --      |    Inf 
R 466s|    75 |    67 | 40894 |  43M|  74 |   - |5262 |3019 |2424 |5262 |3052 |  42 |   0 | 180 | 0.000000e+00 | 1.000000e+01 |    Inf 
  524s|   100 |    92 | 51270 |  43M|  74 | 193 |5262 |3019 |2780 |5262 |3052 |  42 |   0 | 195 | 0.000000e+00 | 1.000000e+01 |    Inf 
c 559s|   142 |   125 | 68393 |  44M|  74 |   - |5262 |3019 |2146 |5262 |3052 |  42 |   0 | 195 | 0.000000e+00 | 8.000000e+00 |    Inf 
  679s|   200 |   183 |104400 |  44M|  74 | 218 |5262 |3019 |2958 |5262 |3052 |  42 |   0 | 210 | 0.000000e+00 | 8.000000e+00 |    Inf 
  963s|   300 |   283 |172983 |  44M|  74 |  76 |5262 |3019 |2739 |5262 |3052 |  42 |   0 | 255 | 0.000000e+00 | 8.000000e+00 |    Inf 
 1068s|   400 |   383 |204183 |  45M|  74 | 169 |5262 |3019 |2792 |5262 |3052 |  42 |   0 | 285 | 0.000000e+00 | 8.000000e+00 |    Inf 
 time | node  | left  |LP iter| mem |mdpt |frac |vars |cons |ccons|cols |rows |cuts |confs|strbr|  dualbound   | primalbound  |  gap   
s1131s|   445 |   311 |223692 |  45M|  74 |  24 |5262 |3019 |2452 |5262 |3052 |  42 |   0 | 301 | 0.000000e+00 | 2.000000e+00 |    Inf 
*1134s|   454 |     0 |225141 |  44M|  74 |   - |5262 |3019 |2327 |5262 |3052 |  42 |   0 | 301 | 0.000000e+00 | 0.000000e+00 |   0.00%

SCIP Status        : problem is solved [optimal solution found]
Solving Time (sec) : 1134.28
Solving Nodes      : 454
Primal Bound       : +0.00000000000000e+00 (5 solutions)
Dual Bound         : +0.00000000000000e+00
Gap                : 0.00 %

primal solution:
================

objective value:                                    0
Taught#1#1#8                                        1 	(obj:0)
Taught#1#3#16                                       1 	(obj:0)
Taught#1#4#27                                       1 	(obj:0)
Taught#1#5#5                                        1 	(obj:0)
Taught#1#6#13                                       1 	(obj:0)
Taught#2#2#25                                       1 	(obj:0)
Taught#2#3#7                                        1 	(obj:0)
Taught#2#4#6                                        1 	(obj:0)
Taught#2#5#11                                       1 	(obj:0)
Taught#2#6#17                                       1 	(obj:0)
Taught#3#1#30                                       1 	(obj:0)
Taught#3#2#4                                        1 	(obj:0)
Taught#3#3#27                                       1 	(obj:0)
Taught#3#4#3                                        1 	(obj:0)
Taught#3#5#33                                       1 	(obj:0)
Taught#3#6#11                                       1 	(obj:0)
Taught#4#1#4                                        1 	(obj:0)
Taught#4#3#36                                       1 	(obj:0)
Taught#4#4#2                                        1 	(obj:0)
Taught#4#5#25                                       1 	(obj:0)
Taught#4#6#15                                       1 	(obj:0)
Taught#5#3#10                                       1 	(obj:0)
Taught#5#4#9                                        1 	(obj:0)
Taught#5#5#28                                       1 	(obj:0)
Taught#5#6#19                                       1 	(obj:0)
Taught#6#1#35                                       1 	(obj:0)
Taught#6#3#7                                        1 	(obj:0)
Taught#6#4#14                                       1 	(obj:0)
Taught#6#5#18                                       1 	(obj:0)
Taught#6#6#9                                        1 	(obj:0)
Taught#7#1#8                                        1 	(obj:0)
Taught#7#2#5                                        1 	(obj:0)
Taught#7#4#14                                       1 	(obj:0)
Taught#7#5#9                                        1 	(obj:0)
Taught#7#6#21                                       1 	(obj:0)
Taught#8#4#33                                       1 	(obj:0)
Taught#8#5#28                                       1 	(obj:0)
Taught#8#6#29                                       1 	(obj:0)
Taught#9#1#7                                        1 	(obj:0)
Taught#9#3#36                                       1 	(obj:0)
Taught#9#4#23                                       1 	(obj:0)
Taught#9#5#18                                       1 	(obj:0)
Taught#9#6#15                                       1 	(obj:0)
Taught#10#1#32                                      1 	(obj:0)
Taught#10#4#11                                      1 	(obj:0)
Taught#10#5#2                                       1 	(obj:0)
Taught#10#6#13                                      1 	(obj:0)
Taught#11#4#7                                       1 	(obj:0)
Taught#11#5#22                                      1 	(obj:0)
Taught#11#6#33                                      1 	(obj:0)
Taught#12#1#4                                       1 	(obj:0)
Taught#12#3#16                                      1 	(obj:0)
Taught#12#4#1                                       1 	(obj:0)
Taught#12#5#6                                       1 	(obj:0)
Taught#12#6#29                                      1 	(obj:0)
Taught#13#1#24                                      1 	(obj:0)
Taught#13#4#19                                      1 	(obj:0)
Taught#13#5#17                                      1 	(obj:0)
Taught#13#6#11                                      1 	(obj:0)
Taught#14#1#24                                      1 	(obj:0)
Taught#14#3#26                                      1 	(obj:0)
Taught#14#4#9                                       1 	(obj:0)
Taught#14#5#18                                      1 	(obj:0)
Taught#14#6#29                                      1 	(obj:0)
Taught#15#1#26                                      1 	(obj:0)
Taught#15#5#2                                       1 	(obj:0)
Taught#15#6#12                                      1 	(obj:0)
Taught#16#1#30                                      1 	(obj:0)
Taught#16#5#10                                      1 	(obj:0)
Taught#16#6#12                                      1 	(obj:0)
Taught#17#3#10                                      1 	(obj:0)
Taught#17#4#17                                      1 	(obj:0)
Taught#17#5#30                                      1 	(obj:0)
Taught#17#6#12                                      1 	(obj:0)
Taught#18#1#24                                      1 	(obj:0)
Taught#18#4#31                                      1 	(obj:0)
Taught#18#5#22                                      1 	(obj:0)
Taught#18#6#20                                      1 	(obj:0)
Taught#19#2#35                                      1 	(obj:0)
Taught#19#4#34                                      1 	(obj:0)
Taught#19#5#6                                       1 	(obj:0)
Taught#19#6#1                                       1 	(obj:0)
Taught#20#4#33                                      1 	(obj:0)
Taught#20#5#17                                      1 	(obj:0)
Taught#20#6#35                                      1 	(obj:0)
Taught#21#4#3                                       1 	(obj:0)
Taught#21#5#34                                      1 	(obj:0)
Taught#21#6#15                                      1 	(obj:0)
Taught#22#1#8                                       1 	(obj:0)
Taught#22#5#36                                      1 	(obj:0)
Taught#22#6#15                                      1 	(obj:0)
Taught#23#1#32                                      1 	(obj:0)
Taught#23#4#36                                      1 	(obj:0)
Taught#23#6#20                                      1 	(obj:0)
Taught#24#4#2                                       1 	(obj:0)
Taught#24#5#31                                      1 	(obj:0)
Taught#24#6#21                                      1 	(obj:0)
Taught#25#3#35                                      1 	(obj:0)
Taught#25#4#5                                       1 	(obj:0)
Taught#25#5#23                                      1 	(obj:0)
CourseSchedule#1#3                                  1 	(obj:0)
CourseSchedule#1#4                                  1 	(obj:0)
CourseSchedule#2#1                                  1 	(obj:0)
CourseSchedule#2#2                                  1 	(obj:0)
CourseSchedule#2#3                                  1 	(obj:0)
CourseSchedule#2#5                                  1 	(obj:0)
CourseSchedule#3#1                                  1 	(obj:0)
CourseSchedule#3#5                                  1 	(obj:0)
CourseSchedule#4#1                                  1 	(obj:0)
CourseSchedule#4#3                                  1 	(obj:0)
CourseSchedule#5#1                                  1 	(obj:0)
CourseSchedule#5#2                                  1 	(obj:0)
CourseSchedule#5#5                                  1 	(obj:0)
CourseSchedule#6#1                                  1 	(obj:0)
CourseSchedule#6#3                                  1 	(obj:0)
CourseSchedule#6#4                                  1 	(obj:0)
CourseSchedule#7#1                                  1 	(obj:0)
CourseSchedule#7#2                                  1 	(obj:0)
CourseSchedule#7#3                                  1 	(obj:0)
CourseSchedule#8#1                                  1 	(obj:0)
CourseSchedule#8#2                                  1 	(obj:0)
CourseSchedule#8#5                                  1 	(obj:0)
CourseSchedule#9#1                                  1 	(obj:0)
CourseSchedule#9#2                                  1 	(obj:0)
CourseSchedule#9#3                                  1 	(obj:0)
CourseSchedule#10#1                                 1 	(obj:0)
CourseSchedule#10#4                                 1 	(obj:0)
CourseSchedule#11#1                                 1 	(obj:0)
CourseSchedule#11#2                                 1 	(obj:0)
CourseSchedule#11#3                                 1 	(obj:0)
CourseSchedule#12#3                                 1 	(obj:0)
CourseSchedule#12#4                                 1 	(obj:0)
CourseSchedule#13#1                                 1 	(obj:0)
CourseSchedule#13#2                                 1 	(obj:0)
CourseSchedule#14#2                                 1 	(obj:0)
CourseSchedule#15#1                                 1 	(obj:0)
CourseSchedule#15#2                                 1 	(obj:0)
CourseSchedule#15#5                                 1 	(obj:0)
CourseSchedule#16#1                                 1 	(obj:0)
CourseSchedule#16#3                                 1 	(obj:0)
CourseSchedule#17#1                                 1 	(obj:0)
CourseSchedule#17#3                                 1 	(obj:0)
CourseSchedule#17#4                                 1 	(obj:0)
CourseSchedule#18#2                                 1 	(obj:0)
CourseSchedule#18#3                                 1 	(obj:0)
CourseSchedule#19#1                                 1 	(obj:0)
CourseSchedule#19#3                                 1 	(obj:0)
CourseSchedule#20#4                                 1 	(obj:0)
CourseSchedule#20#5                                 1 	(obj:0)
CourseSchedule#21#2                                 1 	(obj:0)
CourseSchedule#21#5                                 1 	(obj:0)
CourseSchedule#22#3                                 1 	(obj:0)
CourseSchedule#22#4                                 1 	(obj:0)
CourseSchedule#23#2                                 1 	(obj:0)
CourseSchedule#23#5                                 1 	(obj:0)
CourseSchedule#24#3                                 1 	(obj:0)
CourseSchedule#24#4                                 1 	(obj:0)
CourseSchedule#25#1                                 1 	(obj:0)
CourseSchedule#26#3                                 1 	(obj:0)
CourseSchedule#27#1                                 1 	(obj:0)
CourseSchedule#28#1                                 1 	(obj:0)
CourseSchedule#28#2                                 1 	(obj:0)
CourseSchedule#29#2                                 1 	(obj:0)
CourseSchedule#29#3                                 1 	(obj:0)
CourseSchedule#30#1                                 1 	(obj:0)
CourseSchedule#30#4                                 1 	(obj:0)
CourseSchedule#31#4                                 1 	(obj:0)
CourseSchedule#31#5                                 1 	(obj:0)
CourseSchedule#32#2                                 1 	(obj:0)
CourseSchedule#32#5                                 1 	(obj:0)
CourseSchedule#33#1                                 1 	(obj:0)
CourseSchedule#33#2                                 1 	(obj:0)
CourseSchedule#33#3                                 1 	(obj:0)
CourseSchedule#33#4                                 1 	(obj:0)
CourseSchedule#34#4                                 1 	(obj:0)
CourseSchedule#34#5                                 1 	(obj:0)
CourseSchedule#35#2                                 1 	(obj:0)
CourseSchedule#35#4                                 1 	(obj:0)
CourseSchedule#35#5                                 1 	(obj:0)
CourseSchedule#36#1                                 1 	(obj:0)
CourseSchedule#36#2                                 1 	(obj:0)
CourseSchedule#36#5                                 1 	(obj:0)

Statistics
==========

SCIP Status        : problem is solved [optimal solution found]
Solving Time       :    1134.28
Original Problem   :
  Problem name     : random_1.ctt.et.zpl
  Variables        : 5916 (5880 binary, 36 integer, 0 implicit integer, 0 continuous)
  Constraints      : 4331 initial, 4331 maximal
Presolved Problem  :
  Problem name     : t_random_1.ctt.et.zpl
  Variables        : 5262 (5226 binary, 36 integer, 0 implicit integer, 0 continuous)
  Constraints      : 3019 initial, 3019 maximal
Presolvers         :       Time  FixedVars   AggrVars   ChgTypes  ChgBounds   AddHoles    DelCons   ChgSides   ChgCoefs
  trivial          :       0.00          0          0          0          0          0          0          0          0
  inttobinary      :       0.00          0          0          0          0          0          0          0          0
  dualfix          :       0.00          0          0          0          0          0          0          0          0
  implics          :       0.00          0          0          0          0          0          0          0          0
  probing          :       0.69          0          0          0          0          0          0          0          0
  knapsack         :       0.89          0          0          0          0          0          0          0          6
  setppc           :       0.03          0          0          0          0          0         75          0          0
  linear           :       0.84        654          0          0        654          0       1237        961          0
  logicor          :       0.00          0          0          0          0          0          0          0          0
  root node        :          -       1590          -          -       1626          -          -          -          -
Constraints        :     Number  #Separate #Propagate    #EnfoLP    #EnfoPS    Cutoffs    DomReds       Cuts      Conss   Children
  integral         :          0          0          0        453          0          0          0          0          0        904
  knapsack         :       1250          7       1977          1          0          0         13          0          0          0
  setppc           :       1425          7       1977          1          0          0      13781          0          0          0
  linear           :        180          7       1286          1          0          0       3017          0          0          0
  logicor          :        164          7        678          1          0          0        175          0          0          0
Constraint Timings :  TotalTime   Separate  Propagate     EnfoLP     EnfoPS
  integral         :     525.75       0.00       0.00     525.75       0.00
  knapsack         :       0.54       0.18       0.36       0.00       0.00
  setppc           :       0.44       0.00       0.44       0.00       0.00
  linear           :       1.21       0.00       1.21       0.00       0.00
  logicor          :       0.03       0.01       0.02       0.00       0.00
Propagators        :       Time      Calls    Cutoffs    DomReds
  rootredcost      :       0.01          3          0       1626
  pseudoobj        :       0.03       1777          0         36
Conflict Analysis  :       Time      Calls    Success  Conflicts   Literals    Reconvs ReconvLits   LP Iters
  propagation      :       0.00          0          0          0        0.0          0        0.0          -
  infeasible LP    :       0.00          0          0          0        0.0          0        0.0          0
  bound exceed. LP :       0.00          0          0          0        0.0          0        0.0          0
  strong branching :       0.00          0          0          0        0.0          0        0.0          0
  pseudo solution  :       0.00          0          0          0        0.0          0        0.0          -
  applied globally :          -          -          -          0        0.0          -          -          -
  applied locally  :          -          -          -          0        0.0          -          -          -
Separators         :       Time      Calls    Cutoffs    DomReds       Cuts      Conss
  cut pool         :       0.00          6          -          -          0          -    (maximal pool size: 42)
  redcost          :       0.54        381          0        401          0          0
  impliedbounds    :       0.01          7          0          0          0          0
  intobj           :       0.00          0          0          0          0          0
  gomory           :       0.22          7          0          0          0          0
  strongcg         :       0.26          7          0          0          0          0
  cmir             :       0.96          7          0          0          0          0
  clique           :       0.07          7          0          0         42          0
Pricers            :       Time      Calls       Vars
  problem variables:       0.00          0          0
Branching Rules    :       Time      Calls    Cutoffs    DomReds       Cuts      Conss   Children
  relpscost        :     525.75        452          0          0          0          0        904
  pscost           :       0.00          0          0          0          0          0          0
  inference        :       0.00          0          0          0          0          0          0
  mostinf          :       0.00          0          0          0          0          0          0
  leastinf         :       0.00          0          0          0          0          0          0
  fullstrong       :       0.00          0          0          0          0          0          0
  allfullstrong    :       0.00          0          0          0          0          0          0
Primal Heuristics  :       Time      Calls      Found
  LP solutions     :       0.00          -          1
  pseudo solutions :       0.00          -          0
  coefdiving       :      11.83          1          1
  pscostdiving     :      25.64          1          0
  fracdiving       :       8.30          1          0
  linesearchdiving :       1.26          1          0
  guideddiving     :       5.23          1          0
  feaspump         :      30.81          1          0
  objpscostdiving  :     113.51          1          0
  rootsoldiving    :       7.91          1          1
  crossover        :       5.37          1          0
  simplerounding   :       0.78        467          0
  rounding         :       1.57        467          1
  shifting         :       0.87         50          1
  fixandinfer      :       0.00          0          0
  intdiving        :       0.00          0          0
  octane           :       0.00          0          0
  rins             :       0.00          0          0
  localbranching   :       0.00          0          0
LP                 :       Time      Calls Iterations  Iter/call   Iter/sec
  primal LP        :       0.01          0          0       0.00       0.00
  dual LP          :     387.55        461     163700     355.10     422.40
  barrier LP       :       0.00          0          0       0.00          -
  diving/probing LP:     198.96        989      61441      62.12     308.81
  strong branching :     525.66        301     217419     722.32     413.61
    (at root node) :          -         38      33514     881.95          -
  conflict analysis:       0.00          0          0       0.00          -
B&B Tree           :
  number of runs   :          1
  nodes            :        454
  nodes (total)    :        454
  nodes left       :          0
  max depth        :         74
  max depth (total):         74
  backtracks       :          8 (1.8%)
  delayed cutoffs  :          0
  repropagations   :          3 (0 domain reductions, 0 cutoffs)
  avg switch length:       2.40
  switching time   :       0.30
Solution           :
  Solutions found  :          5 (4 improvements)
  Primal Bound     : +0.00000000000000e+00   (in run 1, after 454 nodes, 1134.26 seconds, depth 59, found by <relaxation>)
  Dual Bound       : +0.00000000000000e+00
  Gap              :       0.00 %
  Root Dual Bound  : +0.00000000000000e+00
